2 45 46 8 7 79 73 78 60 53 98 55 68 
92 50 33 32 31 29 27 26 28 30 34 67 94 80 
61 42 39 36 44 43 40 41 38 37 35 72 71 93 96 54 81 
91 95 62 85 63 51 19 23 21 48 18 89 76 49 20 22 66 
90 82 15 11 9 10 12 14 47 17 16 13 59 97 75 58 77 25 24 83 
69 88 6 4 5 3 1 70 100 
64 84 56 
65 99 52 86 87 74 57 
